120
1000
200
200
199
197
197
196
196
193
193
193
192
192
191
191
191
190
190
190
189
189
189
188
187
187
186
186
186
186
185
185
185
185
185
185
184
184
184
183
183
182
182
182
181
181
181
180
180
180
178
177
177
176
176
175
174
173
173
172
172
172
171
170
170
170
170
168
168
168
167
166
166
165
165
165
165
164
164
164
163
162
162
162
161
161
161
161
159
159
159
158
158
158
158
157
157
157
157
157
157
156
156
156
156
156
156
156
155
154
154
153
153
152
152
152
152
151
151
151
150
150
